solution status: optimal solution found
objective value:                     193056.719572819
d11(0,0)                                            1 	(obj:0)
d11(1,1)                                            1 	(obj:0)
d11(1,2)                                            1 	(obj:0)
d11(2,5)                                            1 	(obj:0)
d11(3,7)                                            1 	(obj:0)
d11(3,8)                                            1 	(obj:0)
d11(3,9)                                            1 	(obj:0)
d11(3,11)                                           1 	(obj:0)
d11(3,13)                                           1 	(obj:0)
d11(3,14)                                           1 	(obj:0)
d11(4,15)                                           1 	(obj:0)
d11(4,19)                                           1 	(obj:0)
d11(4,21)                                           1 	(obj:0)
d11(4,25)                                           1 	(obj:0)
d11(4,27)                                           1 	(obj:0)
d11(4,29)                                           1 	(obj:0)
d11(5,31)                           0.999999999999985 	(obj:0)
d11(5,33)                           0.999999999999985 	(obj:0)
d11(5,35)                           0.999999999999985 	(obj:0)
d11(5,37)                           0.999999999999985 	(obj:0)
d11(5,39)                           0.999999999999985 	(obj:0)
d11(5,45)                           0.999999999999985 	(obj:0)
d11(5,47)                           0.999999999999985 	(obj:0)
d11(5,49)                           0.999999999999985 	(obj:0)
d11(5,51)                                           1 	(obj:0)
d11(5,57)                           0.999999999999985 	(obj:0)
d11(5,61)                           0.999999999999985 	(obj:0)
d12(2,4)                                            1 	(obj:0)
d12(2,6)                                            1 	(obj:0)
d12(4,16)                                           1 	(obj:0)
d12(4,18)                                           1 	(obj:0)
d12(4,20)                                           1 	(obj:0)
d12(4,22)                                           1 	(obj:0)
d12(4,24)                                           1 	(obj:0)
d12(4,26)                                           1 	(obj:0)
d12(4,28)                                           1 	(obj:0)
d12(4,30)                                           1 	(obj:0)
d12(5,32)                                           1 	(obj:0)
d12(5,34)                                           1 	(obj:0)
d12(5,36)                                           1 	(obj:0)
d12(5,38)                                           1 	(obj:0)
d12(5,40)                                           1 	(obj:0)
d12(5,42)                                           1 	(obj:0)
d12(5,44)                                           1 	(obj:0)
d12(5,46)                                           1 	(obj:0)
d12(5,48)                                           1 	(obj:0)
d12(5,50)                                           1 	(obj:0)
d12(5,52)                                           1 	(obj:0)
d12(5,54)                                           1 	(obj:0)
d12(5,56)                                           1 	(obj:0)
d12(5,58)                                           1 	(obj:0)
d12(5,60)                                           1 	(obj:0)
d12(5,62)                                           1 	(obj:0)
d21(3,7)                                            1 	(obj:0)
d21(4,15)                                           1 	(obj:0)
d21(4,16)                                           1 	(obj:0)
d21(4,17)                                           1 	(obj:0)
d21(4,19)                                           1 	(obj:0)
d21(4,23)                                           1 	(obj:0)
d21(5,31)                                           1 	(obj:0)
d21(5,32)                                           1 	(obj:0)
d21(5,33)                                           1 	(obj:0)
d21(5,34)                                           1 	(obj:0)
d21(5,35)                                           1 	(obj:0)
d21(5,36)                                           1 	(obj:0)
d21(5,37)                                           1 	(obj:0)
d21(5,39)                                           1 	(obj:0)
d21(5,40)                                           1 	(obj:0)
d21(5,41)                                           1 	(obj:0)
d21(5,43)                                           1 	(obj:0)
d21(5,47)                                           1 	(obj:0)
d21(5,48)                                           1 	(obj:0)
d21(5,49)                                           1 	(obj:0)
d21(5,55)                                           1 	(obj:0)
y2(5,40)                             1385.48851144895 	(obj:0)
y2(5,42)                             1385.48851144895 	(obj:0)
y2(5,44)                             1385.48851144895 	(obj:0)
y2(5,46)                             1385.48851144895 	(obj:0)
y2(5,48)                             1385.48851144895 	(obj:0)
y2(5,50)                             1385.48851144895 	(obj:0)
y2(5,52)                             1385.48851144895 	(obj:0)
y2(5,54)                             1385.48851144895 	(obj:0)
y2(5,56)                             1385.48851144895 	(obj:0)
y2(5,58)                             1385.48851144895 	(obj:0)
y2(5,60)                             1385.48851144895 	(obj:0)
y2(5,62)                             1385.48851144895 	(obj:0)
STE(1,1)                             9681.75010092936 	(obj:0)
STE(0,0)                                        15750 	(obj:0)
STE(1,2)                             11339.9999998182 	(obj:0)
STE(2,3)                             8421.75010092936 	(obj:0)
STE(2,4)                             9737.96418680586 	(obj:0)
STE(2,5)                             10079.9999998182 	(obj:0)
STE(2,6)                             11396.2140856947 	(obj:0)
STE(3,7)                             5503.50020204054 	(obj:0)
STE(3,8)                             7161.75010092935 	(obj:0)
STE(3,9)                             6819.71428791704 	(obj:0)
STE(3,10)                            8477.96418680586 	(obj:0)
STE(3,11)                            7161.75010092935 	(obj:0)
STE(3,12)                            8819.99999981817 	(obj:0)
STE(3,13)                            8477.96418680586 	(obj:0)
STE(3,14)                            10136.2140856947 	(obj:0)
STE(4,15)                            4243.50020204054 	(obj:0)
STE(4,16)                            5559.71428791704 	(obj:0)
STE(4,17)                            5901.75010092935 	(obj:0)
STE(4,18)                            7217.96418680586 	(obj:0)
STE(4,19)                            5559.71428791698 	(obj:0)
STE(4,20)                            6875.92837379352 	(obj:0)
STE(4,21)                            7217.96418680586 	(obj:0)
STE(4,22)                            8534.17827268237 	(obj:0)
STE(4,23)                            5901.75010092935 	(obj:0)
STE(4,24)                            7217.96418680586 	(obj:0)
STE(4,25)                                        7560 	(obj:0)
STE(4,26)                            8876.21408569468 	(obj:0)
STE(4,27)                            7217.96418680586 	(obj:0)
STE(4,28)                            8534.17827268234 	(obj:0)
STE(4,29)                            8876.21408569468 	(obj:0)
STE(4,30)                            10192.4281715712 	(obj:0)
STE(5,31)                            2983.50020204054 	(obj:0)
STE(5,32)                            4299.71428791704 	(obj:0)
STE(5,33)                            4299.71428791704 	(obj:0)
STE(5,34)                            5615.92837379355 	(obj:0)
STE(5,35)                            4641.75010092935 	(obj:0)
STE(5,36)                            5957.96418680586 	(obj:0)
STE(5,37)                            5957.96418680586 	(obj:0)
STE(5,38)                            7274.17827268237 	(obj:0)
STE(5,39)                            4299.71428791698 	(obj:0)
STE(5,40)                            5615.92837379349 	(obj:0)
STE(5,41)                            5615.92837379352 	(obj:0)
STE(5,42)                            6932.14245967003 	(obj:0)
STE(5,43)                            5957.96418680586 	(obj:0)
STE(5,44)                            7274.17827268237 	(obj:0)
STE(5,45)                            7274.17827268237 	(obj:0)
STE(5,46)                            8590.39235855888 	(obj:0)
STE(5,47)                            4641.75010092935 	(obj:0)
STE(5,48)                            5957.96418680586 	(obj:0)
STE(5,49)                            5957.96418680586 	(obj:0)
STE(5,50)                            7274.17827268236 	(obj:0)
STE(5,51)                                        6300 	(obj:0)
STE(5,52)                            7616.21408587651 	(obj:0)
STE(5,53)                            7616.21408569468 	(obj:0)
STE(5,54)                            8932.42817157119 	(obj:0)
STE(5,55)                            5957.96418680586 	(obj:0)
STE(5,56)                            7274.17827268237 	(obj:0)
STE(5,57)                            7274.17827268234 	(obj:0)
STE(5,58)                            8590.39235855885 	(obj:0)
STE(5,59)                            7616.21408569468 	(obj:0)
STE(5,60)                            8932.42817157119 	(obj:0)
STE(5,61)                            8932.42817157119 	(obj:0)
STE(5,62)                            10248.6422574477 	(obj:0)
AVE(1)                                   3216.9117036 	(obj:0)
WB(2)                                    3366.1541945 	(obj:0)
AVE(2)                                   3366.1541945 	(obj:0)
AVE(3)                                   3515.3966854 	(obj:0)
WB(4)                                3515.39406547192 	(obj:0)
AVE(4)                               3515.39406545826 	(obj:0)
WB(5)                                3167.15385943327 	(obj:0)
AVE(5)                               3167.15385943327 	(obj:0)
WG(1)                                    3216.9117036 	(obj:10)
WG(3)                                    3515.3966854 	(obj:10)
WG(4)                            -1.36609816429566e-008 	(obj:10)
BG(1)                                3872.23793840369 	(obj:10)
BG(2)                                2673.40993877551 	(obj:10)
BG(3)                                680.895813579591 	(obj:10)
BG(4)                                2673.40993878917 	(obj:10)
BG(5)                                2673.40993877551 	(obj:10)
y1(1,1)                              4327.42490916358 	(obj:0)
y1(1,2)                              2835.00000016364 	(obj:0)
y1(3,7)                              1492.42490899994 	(obj:0)
y1(3,9)                              1492.42490899994 	(obj:0)
y1(3,11)                             1492.42490899994 	(obj:0)
y1(3,13)                             1492.42490899994 	(obj:0)
y1(4,25)                         -1.63645017892122e-007 	(obj:0)
y2(2,4)                              1385.48851144895 	(obj:0)
y2(2,6)                              1385.48851144895 	(obj:0)
y2(4,16)                             1385.48851144895 	(obj:0)
y2(4,18)                             1385.48851144895 	(obj:0)
y2(4,20)                             1385.48851144892 	(obj:0)
y2(4,22)                             1385.48851144895 	(obj:0)
y2(4,24)                             1385.48851144895 	(obj:0)
y2(4,26)                             1385.48851144895 	(obj:0)
y2(4,28)                             1385.48851144892 	(obj:0)
y2(4,30)                             1385.48851144895 	(obj:0)
y2(5,32)                             1385.48851144895 	(obj:0)
y2(5,34)                             1385.48851144895 	(obj:0)
y2(5,36)                             1385.48851144895 	(obj:0)
y2(5,38)                             1385.48851144895 	(obj:0)
